12 16 6 10
11 16 9 10 17 8 18 10 14 14 15 6 5 17 17 5 
1.93 2.75 2.48 7.55 0.06 0.49 5.34 6.78 2.75 5.08 0.59 1.56 7.85 5.21 3.35 5.93 
6.19 0.47 6.57 0.13 5.02 5.05 2.21 4.07 0.01 0.02 2.28 5.95 0.52 0.91 4.54 1.43 
4.61 3.72 2.85 2.04 1.98 1.03 5.39 1.39 7.21 2.41 7.67 5.33 6.47 2.07 2.46 5.04 
3.24 7.39 6.91 1.51 6.46 1.96 5.45 4.29 0.52 0.67 3.24 5.94 5.45 6.76 1.22 2.54 
6.12 0.75 6.87 4.27 1.09 0.16 4.69 7.24 3.77 0.99 1.7 7.53 4.99 1.05 5.79 2.58 
7.36 0.28 7.14 2.14 3.51 3.33 2.95 0.88 3.79 7.79 1.5 3.02 0.49 6.57 7.1 5.11 
4 4 4 4 4 4 4 4 4 4 4 4 4 4 4 4 
1.72 6.03 3.05 7.88 4.66 0.38 3.85 4.97 3.34 3.55 5.33 1.42 6.76 1.05 6.51 7.85 
4 4.82 7.46 0.02 5.93 1.94 2.39 4.96 1.31 3.77 6.46 5.36 2.79 2.33 4.86 4.29 
2.61 3 3.84 2.27 3.94 3.68 6.4 0.1 6.85 2.8 1.02 0.88 4.54 6.83 7.72 1.83 
3.46 0.51 2.75 7.83 3.21 4.65 3.84 3.41 7.01 2.02 7.51 7.09 6.63 6.07 1.27 1.47 
2.61 0.78 0.82 2.23 1.7 2.81 2.5 6.03 1.28 2.83 4.61 2.07 0.66 5.27 5.63 7.99 
1 1 1 1 1 1 1 1 1 1 1 1 1 1 1 1 
1 1 1 1 1 1 1 1 1 1 1 1 1 1 1 1 
1 1 1 1 1 1 1 1 1 1 1 1 1 1 1 1 
1 1 1 1 1 1 1 1 1 1 1 1 1 1 1 1 
1 1 1 1 1 1 1 1 1 1 1 1 1 1 1 1 
1 1 1 1 1 1 1 1 1 1 1 1 1 1 1 1 
1 1 1 1 1 1 1 1 1 1 1 1 1 1 1 1 
1 1 1 1 1 1 1 1 1 1 1 1 1 1 1 1 
1 1 1 1 1 1 1 1 1 1 1 1 1 1 1 1 
1 1 1 1 1 1 1 1 1 1 1 1 1 1 1 1 
1 1 1 1 1 1 1 1 1 1 1 1 1 1 1 1 
1 1 1 1 1 1 1 1 1 1 1 1 1 1 1 1 
0.01 0.01 0.01 0.01 0.01 0.01 0.01 0.01 0.01 0.01 0.01 0.01 0.01 0.01 0.01 0.01 
0.02 0.02 0.02 0.02 0.02 0.02 0.02 0.02 0.02 0.02 0.02 0.02 0.02 0.02 0.02 0.02 
0.03 0.03 0.03 0.03 0.03 0.03 0.03 0.03 0.03 0.03 0.03 0.03 0.03 0.03 0.03 0.03 
0.04 0.04 0.04 0.04 0.04 0.04 0.04 0.04 0.04 0.04 0.04 0.04 0.04 0.04 0.04 0.04 
0.05 0.05 0.05 0.05 0.05 0.05 0.05 0.05 0.05 0.05 0.05 0.05 0.05 0.05 0.05 0.05 
0.06 0.06 0.06 0.06 0.06 0.06 0.06 0.06 0.06 0.06 0.06 0.06 0.06 0.06 0.06 0.06 
0.07 0.07 0.07 0.07 0.07 0.07 0.07 0.07 0.07 0.07 0.07 0.07 0.07 0.07 0.07 0.07 
0.2 0.2 0.2 0.2 0.2 0.2 0.2 0.2 0.2 0.2 0.2 0.2 0.2 0.2 0.2 0.2 
0.4 0.4 0.4 0.4 0.4 0.4 0.4 0.4 0.4 0.4 0.4 0.4 0.4 0.4 0.4 0.4 
0.6 0.6 0.6 0.6 0.6 0.6 0.6 0.6 0.6 0.6 0.6 0.6 0.6 0.6 0.6 0.6 
0.8 0.8 0.8 0.8 0.8 0.8 0.8 0.8 0.8 0.8 0.8 0.8 0.8 0.8 0.8 0.8 
1 1 1 1 1 1 1 1 1 1 1 1 1 1 1 1 
